Route #1: 6 30 42 22 37 48 54 57 18
Route #2: 23 41 4 51 47 11 32
Route #3: 13 39 49 36 50 31 5
Route #4: 38 3 24 17 45 43 8
Route #5: 7 33 46 53 25
Route #6: 15 35 20 40 27 14
Route #7: 10 29 19 28 55 44 2 34
Route #8: 9 16 52 26 21 12
Route #9: 56
cost 1744
